c FILE /home/rafael/Documents/HappySet/MIHS/inputs/happygen/output/graph_d_regular_k2_p0.2_v50_20241127_082543.txt
c SOURCE This is a d-regular graph formed for the happy graph colouring problem.
c DESCRIPTION It was generated using the problem generator of Rhyd Lewis
c
c GRAPH STATS
c Seed                             = 1223368689
c Number of Nodes                  = 50
c Number of colours k              = 2
c Number of pre-assignments        = 10
c Degree of all vertices           = 6
c Density                          = 0.122449
c 
c The degrees of nodes 1 to 50, respectively, are as follows 
c [6, 6, 6, 6, 6, 6, 6, 6, 6, 6, 6, 6, 6, 6, 6, 6, 6, 6, 6, 6, 6, 6, 6, 6, 6, 6, 
c  6, 6, 6, 6, 6, 6, 6, 6, 6, 6, 6, 6, 6, 6, 6, 6, 6, 6, 6, 6, 6, 6, 6, 6] 
c  
p edge 50 150 2
e 1 3
e 1 20
e 1 24
e 1 25
e 1 27
e 1 41
e 2 18
e 2 20
e 2 26
e 2 28
e 2 40
e 2 45
e 3 12
e 3 31
e 3 41
e 3 46
e 3 47
e 4 9
e 4 12
e 4 21
e 4 23
e 4 36
e 4 50
e 5 15
e 5 21
e 5 38
e 5 39
e 5 40
e 5 42
e 6 22
e 6 29
e 6 32
e 6 33
e 6 44
e 6 47
e 7 9
e 7 10
e 7 40
e 7 43
e 7 49
e 7 50
e 8 12
e 8 17
e 8 35
e 8 39
e 8 40
e 8 47
e 9 19
e 9 36
e 9 39
e 9 46
e 10 14
e 10 40
e 10 41
e 10 42
e 10 48
e 11 26
e 11 28
e 11 35
e 11 36
e 11 44
e 11 46
e 12 15
e 12 27
e 12 45
e 13 21
e 13 24
e 13 27
e 13 31
e 13 34
e 13 43
e 14 22
e 14 30
e 14 31
e 14 38
e 14 41
e 15 16
e 15 34
e 15 37
e 15 38
e 16 18
e 16 20
e 16 30
e 16 32
e 16 33
e 17 19
e 17 26
e 17 41
e 17 46
e 17 50
e 18 22
e 18 25
e 18 26
e 18 50
e 19 23
e 19 29
e 19 35
e 19 45
e 20 29
e 20 31
e 20 34
e 21 22
e 21 24
e 21 37
e 22 23
e 22 49
e 23 30
e 23 39
e 23 42
e 24 30
e 24 31
e 24 48
e 25 26
e 25 34
e 25 37
e 25 47
e 26 28
e 27 37
e 27 48
e 27 49
e 28 31
e 28 32
e 28 43
e 29 35
e 29 42
e 29 48
e 30 43
e 30 48
e 32 33
e 32 38
e 32 42
e 33 39
e 33 41
e 33 49
e 34 35
e 34 44
e 35 48
e 36 37
e 36 43
e 36 45
e 37 46
e 38 46
e 38 49
e 39 44
e 40 44
e 42 44
e 43 45
e 45 47
e 47 50
e 49 50
n 1 2
n 2 2
n 3 2
n 15 1
n 18 2
n 31 2
n 34 1
n 37 1
n 39 2
n 49 1
